(set-logic ALL)
(declare-fun C () String)
(declare-fun F () String)
(assert (= (str.++  "jddfbcgidjajfjebjiejjiiddecigbhhigbdjbdjabjdjaig" C "idegjjajgedciad")  (str.++  "jddfbcgidjajfjebjiejjiiddecigbhhigbdjbd" F) ))
(check-sat)
(get-model)
